(set-info :source |printed by MathSAT|)
(declare-fun |!{$(in_main#0)<array.1>}| () (Array Int Int))
(declare-fun |!{$(in_main#0)<array.1>}.next| () (Array Int Int))
(declare-fun |!{$(in_main#0)<subarray.2>}| () (Array Int Int))
(declare-fun |!{$(in_main#0)<subarray.2>}.next| () (Array Int Int))
(declare-fun |!{$(in_main#0)<main.return>}| () Int)
(declare-fun |!{$(in_main#0)<main.return>}.next| () Int)
(declare-fun |!{$(in_main#0)<M>}| () Int)
(declare-fun |!{$(in_main#0)<M>}.next| () Int)
(declare-fun |!{$(in_main#0)<N>}| () Int)
(declare-fun |!{$(in_main#0)<N>}.next| () Int)
(declare-fun |!{$(in_main#0)<idx>}| () Int)
(declare-fun |!{$(in_main#0)<idx>}.next| () Int)
(declare-fun |!{$(in_main#0)<is_sub>}| () Int)
(declare-fun |!{$(in_main#0)<is_sub>}.next| () Int)
(declare-fun |!{$(in_main#0)<k>}| () Int)
(declare-fun |!{$(in_main#0)<k>}.next| () Int)
(declare-fun |!{$(in_main#0)<k#1>}| () Int)
(declare-fun |!{$(in_main#0)<k#1>}.next| () Int)
(declare-fun |!{$(in_main#0)<k#2>}| () Int)
(declare-fun |!{$(in_main#0)<k#2>}.next| () Int)
(declare-fun |!{$(in_main#0)<k#3>}| () Int)
(declare-fun |!{$(in_main#0)<k#3>}.next| () Int)
(declare-fun |!{$(in_main#0)<$(in___VERIFIER_nondet_int#0)<h#<__VERIFIER_nondet_int.return>>>}| () Int)
(declare-fun |!{$(in_main#0)<$(in___VERIFIER_nondet_int#1)<h#<__VERIFIER_nondet_int.return>>>}| () Int)
(declare-fun |!{$(in_main#0)<$(in___VERIFIER_nondet_int#2)<h#<__VERIFIER_nondet_int.return>>>}| () Int)
(declare-fun |!{$(in_main#0)<$(in___VERIFIER_nondet_int#4)<h#<__VERIFIER_nondet_int.return>>>}| () Int)
(declare-fun |!{$(in_main#0)<$(in___VERIFIER_nondet_int#5)<h#<__VERIFIER_nondet_int.return>>>}| () Int)
(declare-fun !pc () Int)
(declare-fun !pc.next () Int)
(declare-fun |%{$(in_main#0)<is_sub>}#1| () Int)
(declare-fun |%{$(in_main#0)<k#1>}#1| () Int)
(declare-fun |%{$(in_main#0)<k#2>}#1| () Int)
(declare-fun |%{$(in_main#0)<k#3>}#1| () Int)
(declare-fun |%{$(in_main#0)<array.1>}#1| () (Array Int Int))
(declare-fun |%{$(in_main#0)<subarray.2>}#1| () (Array Int Int))
(declare-fun |%{$(in_main#0)<main.return>}#1| () Int)
(declare-fun |%{$(in_main#0)<is_sub>}#2| () Int)
(define-fun .def_52 () Int (! !pc :next !pc.next))
(define-fun .def_55 () Bool (! (= .def_52 2) :init true))
(define-fun .def_314 () Bool (= .def_52 63))
(define-fun .def_282 () Bool (= !pc.next 83))
(define-fun .def_317 () Bool (and .def_282 .def_314))
(define-fun .def_309 () Bool (= |!{$(in_main#0)<k#1>}.next| 0))
(define-fun .def_10 () (Array Int Int) (! |!{$(in_main#0)<subarray.2>}| :next |!{$(in_main#0)<subarray.2>}.next|))
(define-fun .def_128 () Bool (= .def_10 |!{$(in_main#0)<subarray.2>}.next|))
(define-fun .def_8 () (Array Int Int) (! |!{$(in_main#0)<array.1>}| :next |!{$(in_main#0)<array.1>}.next|))
(define-fun .def_126 () Bool (= .def_8 |!{$(in_main#0)<array.1>}.next|))
(define-fun .def_149 () Bool (and .def_126 .def_128))
(define-fun .def_12 () Int (! |!{$(in_main#0)<main.return>}| :next |!{$(in_main#0)<main.return>}.next|))
(define-fun .def_130 () Bool (= .def_12 |!{$(in_main#0)<main.return>}.next|))
(define-fun .def_150 () Bool (and .def_130 .def_149))
(define-fun .def_14 () Int (! |!{$(in_main#0)<M>}| :next |!{$(in_main#0)<M>}.next|))
(define-fun .def_132 () Bool (= .def_14 |!{$(in_main#0)<M>}.next|))
(define-fun .def_151 () Bool (and .def_132 .def_150))
(define-fun .def_16 () Int (! |!{$(in_main#0)<N>}| :next |!{$(in_main#0)<N>}.next|))
(define-fun .def_134 () Bool (= .def_16 |!{$(in_main#0)<N>}.next|))
(define-fun .def_152 () Bool (and .def_134 .def_151))
(define-fun .def_18 () Int (! |!{$(in_main#0)<idx>}| :next |!{$(in_main#0)<idx>}.next|))
(define-fun .def_136 () Bool (= .def_18 |!{$(in_main#0)<idx>}.next|))
(define-fun .def_153 () Bool (and .def_136 .def_152))
(define-fun .def_20 () Int (! |!{$(in_main#0)<is_sub>}| :next |!{$(in_main#0)<is_sub>}.next|))
(define-fun .def_138 () Bool (= .def_20 |!{$(in_main#0)<is_sub>}.next|))
(define-fun .def_154 () Bool (and .def_138 .def_153))
(define-fun .def_22 () Int (! |!{$(in_main#0)<k>}| :next |!{$(in_main#0)<k>}.next|))
(define-fun .def_140 () Bool (= .def_22 |!{$(in_main#0)<k>}.next|))
(define-fun .def_155 () Bool (and .def_140 .def_154))
(define-fun .def_310 () Bool (and .def_155 .def_309))
(define-fun .def_26 () Int (! |!{$(in_main#0)<k#2>}| :next |!{$(in_main#0)<k#2>}.next|))
(define-fun .def_144 () Bool (= .def_26 |!{$(in_main#0)<k#2>}.next|))
(define-fun .def_311 () Bool (and .def_144 .def_310))
(define-fun .def_28 () Int (! |!{$(in_main#0)<k#3>}| :next |!{$(in_main#0)<k#3>}.next|))
(define-fun .def_146 () Bool (= .def_28 |!{$(in_main#0)<k#3>}.next|))
(define-fun .def_312 () Bool (and .def_146 .def_311))
(define-fun .def_290 () Bool (<= .def_14 .def_22))
(define-fun .def_313 () Bool (and .def_290 .def_312))
(define-fun .def_318 () Bool (and .def_313 .def_317))
(define-fun .def_111 () Bool (= !pc.next 63))
(define-fun .def_315 () Bool (and .def_111 .def_314))
(define-fun .def_301 () Int (* (- 1) |!{$(in_main#0)<k>}.next|))
(define-fun .def_302 () Int (+ .def_22 .def_301))
(define-fun .def_303 () Bool (= .def_302 (- 1)))
(define-fun .def_292 () (Array Int Int) (store .def_8 .def_22 |!{$(in_main#0)<$(in___VERIFIER_nondet_int#4)<h#<__VERIFIER_nondet_int.return>>>}|))
(define-fun .def_294 () Bool (= |!{$(in_main#0)<array.1>}.next| .def_292))
(define-fun .def_295 () Bool (and .def_128 .def_294))
(define-fun .def_296 () Bool (and .def_130 .def_295))
(define-fun .def_297 () Bool (and .def_132 .def_296))
(define-fun .def_298 () Bool (and .def_134 .def_297))
(define-fun .def_299 () Bool (and .def_136 .def_298))
(define-fun .def_300 () Bool (and .def_138 .def_299))
(define-fun .def_304 () Bool (and .def_300 .def_303))
(define-fun .def_24 () Int (! |!{$(in_main#0)<k#1>}| :next |!{$(in_main#0)<k#1>}.next|))
(define-fun .def_142 () Bool (= .def_24 |!{$(in_main#0)<k#1>}.next|))
(define-fun .def_305 () Bool (and .def_142 .def_304))
(define-fun .def_306 () Bool (and .def_144 .def_305))
(define-fun .def_307 () Bool (and .def_146 .def_306))
(define-fun .def_291 () Bool (not .def_290))
(define-fun .def_308 () Bool (and .def_291 .def_307))
(define-fun .def_316 () Bool (and .def_308 .def_315))
(define-fun .def_319 () Bool (or .def_316 .def_318))
(define-fun .def_281 () Bool (= .def_52 83))
(define-fun .def_227 () Bool (= !pc.next 113))
(define-fun .def_285 () Bool (and .def_227 .def_281))
(define-fun .def_269 () Bool (= |!{$(in_main#0)<k#2>}.next| 0))
(define-fun .def_265 () Bool (= |!{$(in_main#0)<is_sub>}.next| 1))
(define-fun .def_266 () Bool (and .def_153 .def_265))
(define-fun .def_267 () Bool (and .def_140 .def_266))
(define-fun .def_268 () Bool (and .def_142 .def_267))
(define-fun .def_270 () Bool (and .def_268 .def_269))
(define-fun .def_271 () Bool (and .def_146 .def_270))
(define-fun .def_242 () Int (* (- 1) .def_18))
(define-fun .def_243 () Int (* (- 1) .def_16))
(define-fun .def_244 () Int (+ .def_243 .def_242))
(define-fun .def_245 () Int (+ .def_14 .def_244))
(define-fun .def_246 () Bool (<= .def_245 0))
(define-fun .def_247 () Bool (not .def_246))
(define-fun .def_272 () Bool (and .def_247 .def_271))
(define-fun .def_237 () Bool (<= .def_16 .def_24))
(define-fun .def_273 () Bool (and .def_237 .def_272))
(define-fun .def_286 () Bool (and .def_273 .def_285))
(define-fun .def_283 () Bool (and .def_281 .def_282))
(define-fun .def_258 () Int (* (- 1) |!{$(in_main#0)<k#1>}.next|))
(define-fun .def_259 () Int (+ .def_24 .def_258))
(define-fun .def_260 () Bool (= .def_259 (- 1)))
(define-fun .def_239 () (Array Int Int) (store .def_10 .def_24 |!{$(in_main#0)<$(in___VERIFIER_nondet_int#5)<h#<__VERIFIER_nondet_int.return>>>}|))
(define-fun .def_250 () Bool (= |!{$(in_main#0)<subarray.2>}.next| .def_239))
(define-fun .def_251 () Bool (and .def_126 .def_250))
(define-fun .def_252 () Bool (and .def_130 .def_251))
(define-fun .def_253 () Bool (and .def_132 .def_252))
(define-fun .def_254 () Bool (and .def_134 .def_253))
(define-fun .def_255 () Bool (and .def_136 .def_254))
(define-fun .def_256 () Bool (and .def_138 .def_255))
(define-fun .def_257 () Bool (and .def_140 .def_256))
(define-fun .def_261 () Bool (and .def_257 .def_260))
(define-fun .def_262 () Bool (and .def_144 .def_261))
(define-fun .def_263 () Bool (and .def_146 .def_262))
(define-fun .def_238 () Bool (not .def_237))
(define-fun .def_264 () Bool (and .def_238 .def_263))
(define-fun .def_284 () Bool (and .def_264 .def_283))
(define-fun .def_287 () Bool (or .def_284 .def_286))
(define-fun .def_226 () Bool (= .def_52 113))
(define-fun .def_177 () Bool (= !pc.next 0))
(define-fun .def_233 () Bool (and .def_177 .def_226))
(define-fun .def_184 () Bool (= .def_20 1))
(define-fun .def_206 () Bool (not .def_184))
(define-fun .def_156 () Bool (and .def_142 .def_155))
(define-fun .def_157 () Bool (and .def_144 .def_156))
(define-fun .def_165 () Bool (and .def_146 .def_157))
(define-fun .def_223 () Bool (and .def_165 .def_206))
(define-fun .def_185 () Bool (<= .def_16 .def_26))
(define-fun .def_186 () Bool (not .def_185))
(define-fun .def_187 () Bool (and .def_184 .def_186))
(define-fun .def_204 () Bool (not .def_187))
(define-fun .def_224 () Bool (and .def_204 .def_223))
(define-fun .def_234 () Bool (and .def_224 .def_233))
(define-fun .def_173 () Bool (= !pc.next 145))
(define-fun .def_230 () Bool (and .def_173 .def_226))
(define-fun .def_219 () Bool (= |!{$(in_main#0)<k#3>}.next| 0))
(define-fun .def_220 () Bool (and .def_157 .def_219))
(define-fun .def_221 () Bool (and .def_184 .def_220))
(define-fun .def_222 () Bool (and .def_204 .def_221))
(define-fun .def_231 () Bool (and .def_222 .def_230))
(define-fun .def_228 () Bool (and .def_226 .def_227))
(define-fun .def_212 () Int (* (- 1) |!{$(in_main#0)<k#2>}.next|))
(define-fun .def_213 () Int (+ .def_26 .def_212))
(define-fun .def_214 () Bool (= .def_213 (- 1)))
(define-fun .def_208 () Bool (= |!{$(in_main#0)<is_sub>}.next| |%{$(in_main#0)<is_sub>}#2|))
(define-fun .def_209 () Bool (and .def_153 .def_208))
(define-fun .def_210 () Bool (and .def_140 .def_209))
(define-fun .def_211 () Bool (and .def_142 .def_210))
(define-fun .def_215 () Bool (and .def_211 .def_214))
(define-fun .def_216 () Bool (and .def_146 .def_215))
(define-fun .def_198 () Bool (= |%{$(in_main#0)<is_sub>}#2| 0))
(define-fun .def_190 () Int (select .def_10 .def_26))
(define-fun .def_188 () Int (+ .def_18 .def_26))
(define-fun .def_189 () Int (select .def_8 .def_188))
(define-fun .def_191 () Bool (= .def_189 .def_190))
(define-fun .def_192 () Bool (not .def_191))
(define-fun .def_200 () Bool (and .def_192 .def_198))
(define-fun .def_197 () Bool (= .def_20 |%{$(in_main#0)<is_sub>}#2|))
(define-fun .def_199 () Bool (and .def_191 .def_197))
(define-fun .def_201 () Bool (or .def_199 .def_200))
(define-fun .def_217 () Bool (and .def_201 .def_216))
(define-fun .def_218 () Bool (and .def_187 .def_217))
(define-fun .def_229 () Bool (and .def_218 .def_228))
(define-fun .def_232 () Bool (or .def_229 .def_231))
(define-fun .def_235 () Bool (or .def_232 .def_234))
(define-fun .def_168 () Bool (= .def_52 145))
(define-fun .def_178 () Bool (and .def_168 .def_177))
(define-fun .def_114 () Bool (<= .def_16 .def_28))
(define-fun .def_166 () Bool (and .def_114 .def_165))
(define-fun .def_179 () Bool (and .def_166 .def_178))
(define-fun .def_174 () Bool (and .def_168 .def_173))
(define-fun .def_159 () Int (* (- 1) |!{$(in_main#0)<k#3>}.next|))
(define-fun .def_160 () Int (+ .def_28 .def_159))
(define-fun .def_161 () Bool (= .def_160 (- 1)))
(define-fun .def_162 () Bool (and .def_157 .def_161))
(define-fun .def_117 () Int (+ .def_18 .def_28))
(define-fun .def_118 () Int (select .def_8 .def_117))
(define-fun .def_116 () Int (select .def_10 .def_28))
(define-fun .def_119 () Bool (= .def_116 .def_118))
(define-fun .def_120 () Int (ite .def_119 1 0))
(define-fun .def_121 () Bool (= .def_120 0))
(define-fun .def_122 () Bool (not .def_121))
(define-fun .def_163 () Bool (and .def_122 .def_162))
(define-fun .def_115 () Bool (not .def_114))
(define-fun .def_164 () Bool (and .def_115 .def_163))
(define-fun .def_175 () Bool (and .def_164 .def_174))
(define-fun .def_170 () Bool (= !pc.next 165))
(define-fun .def_171 () Bool (and .def_168 .def_170))
(define-fun .def_127 () Bool (and .def_121 .def_126))
(define-fun .def_129 () Bool (and .def_127 .def_128))
(define-fun .def_131 () Bool (and .def_129 .def_130))
(define-fun .def_133 () Bool (and .def_131 .def_132))
(define-fun .def_135 () Bool (and .def_133 .def_134))
(define-fun .def_137 () Bool (and .def_135 .def_136))
(define-fun .def_139 () Bool (and .def_137 .def_138))
(define-fun .def_141 () Bool (and .def_139 .def_140))
(define-fun .def_143 () Bool (and .def_141 .def_142))
(define-fun .def_145 () Bool (and .def_143 .def_144))
(define-fun .def_147 () Bool (and .def_145 .def_146))
(define-fun .def_148 () Bool (and .def_115 .def_147))
(define-fun .def_172 () Bool (and .def_148 .def_171))
(define-fun .def_176 () Bool (or .def_172 .def_175))
(define-fun .def_180 () Bool (or .def_176 .def_179))
(define-fun .def_112 () Bool (and .def_55 .def_111))
(define-fun .def_107 () Bool (= |!{$(in_main#0)<k#3>}.next| |%{$(in_main#0)<k#3>}#1|))
(define-fun .def_105 () Bool (= |!{$(in_main#0)<k#2>}.next| |%{$(in_main#0)<k#2>}#1|))
(define-fun .def_103 () Bool (= |!{$(in_main#0)<k#1>}.next| |%{$(in_main#0)<k#1>}#1|))
(define-fun .def_101 () Bool (= |!{$(in_main#0)<k>}.next| 0))
(define-fun .def_99 () Bool (= |!{$(in_main#0)<is_sub>}.next| |%{$(in_main#0)<is_sub>}#1|))
(define-fun .def_97 () Bool (= |!{$(in_main#0)<idx>}.next| |!{$(in_main#0)<$(in___VERIFIER_nondet_int#2)<h#<__VERIFIER_nondet_int.return>>>}|))
(define-fun .def_95 () Bool (= |!{$(in_main#0)<N>}.next| |!{$(in_main#0)<$(in___VERIFIER_nondet_int#1)<h#<__VERIFIER_nondet_int.return>>>}|))
(define-fun .def_93 () Bool (= |!{$(in_main#0)<M>}.next| |!{$(in_main#0)<$(in___VERIFIER_nondet_int#0)<h#<__VERIFIER_nondet_int.return>>>}|))
(define-fun .def_91 () Bool (= |!{$(in_main#0)<main.return>}.next| |%{$(in_main#0)<main.return>}#1|))
(define-fun .def_89 () Bool (= |!{$(in_main#0)<subarray.2>}.next| |%{$(in_main#0)<subarray.2>}#1|))
(define-fun .def_88 () Bool (= |!{$(in_main#0)<array.1>}.next| |%{$(in_main#0)<array.1>}#1|))
(define-fun .def_90 () Bool (and .def_88 .def_89))
(define-fun .def_92 () Bool (and .def_90 .def_91))
(define-fun .def_94 () Bool (and .def_92 .def_93))
(define-fun .def_96 () Bool (and .def_94 .def_95))
(define-fun .def_98 () Bool (and .def_96 .def_97))
(define-fun .def_100 () Bool (and .def_98 .def_99))
(define-fun .def_102 () Bool (and .def_100 .def_101))
(define-fun .def_104 () Bool (and .def_102 .def_103))
(define-fun .def_106 () Bool (and .def_104 .def_105))
(define-fun .def_108 () Bool (and .def_106 .def_107))
(define-fun .def_82 () Bool (<= |!{$(in_main#0)<$(in___VERIFIER_nondet_int#0)<h#<__VERIFIER_nondet_int.return>>>}| |!{$(in_main#0)<$(in___VERIFIER_nondet_int#2)<h#<__VERIFIER_nondet_int.return>>>}|))
(define-fun .def_83 () Bool (not .def_82))
(define-fun .def_80 () Bool (<= 0 |!{$(in_main#0)<$(in___VERIFIER_nondet_int#2)<h#<__VERIFIER_nondet_int.return>>>}|))
(define-fun .def_78 () Bool (<= |!{$(in_main#0)<$(in___VERIFIER_nondet_int#1)<h#<__VERIFIER_nondet_int.return>>>}| |!{$(in_main#0)<$(in___VERIFIER_nondet_int#0)<h#<__VERIFIER_nondet_int.return>>>}|))
(define-fun .def_75 () Bool (<= |!{$(in_main#0)<$(in___VERIFIER_nondet_int#0)<h#<__VERIFIER_nondet_int.return>>>}| 0))
(define-fun .def_76 () Bool (not .def_75))
(define-fun .def_73 () Bool (<= |!{$(in_main#0)<$(in___VERIFIER_nondet_int#1)<h#<__VERIFIER_nondet_int.return>>>}| 0))
(define-fun .def_74 () Bool (not .def_73))
(define-fun .def_77 () Bool (and .def_74 .def_76))
(define-fun .def_79 () Bool (and .def_77 .def_78))
(define-fun .def_81 () Bool (and .def_79 .def_80))
(define-fun .def_84 () Bool (and .def_81 .def_83))
(define-fun .def_85 () Int (ite .def_84 1 0))
(define-fun .def_86 () Bool (= .def_85 0))
(define-fun .def_87 () Bool (not .def_86))
(define-fun .def_109 () Bool (and .def_87 .def_108))
(define-fun .def_113 () Bool (and .def_109 .def_112))
(define-fun .def_181 () Bool (or .def_113 .def_180))
(define-fun .def_236 () Bool (or .def_181 .def_235))
(define-fun .def_289 () Bool (or .def_236 .def_287))
(define-fun .def_320 () Bool (! (or .def_289 .def_319) :trans true))
(define-fun .def_182 () Bool (= .def_52 165))
(define-fun .def_321 () Bool (! (not .def_182) :invar-property 0 :invar-property-name ||))
(assert true)
